outputs/case_199.model.txt
capital_adequacy_ratio = 40
business_restriction_compliance = False
accelerated_deterioration_flag = False
financial_or_business_deterioration_flag = False
net_worth_ratio = -10
supervisory_measures_executed = False
net_worth = -10
improvement_plan_submitted_and_executed = True
business_restriction_violated = True
improvement_plan_approved_flag = False
capital_insufficient = False
financial_or_business_deterioration = False
internal_handling_established = True
capital_adequate = False
capital_significantly_insufficient = False
capital_level_lowest = 4
internal_handling_ok = True
improvement_plan_accelerated_deterioration = False
internal_control_penalty = False
capital_severely_insufficient = True
capital_level = 4
capital_severe_measures_executed = False
capital_level_measures_ok = False
supervisory_measures_needed = False
improvement_plan_completed = True
internal_control_executed = True
penalty = False
internal_handling_executed = True
internal_handling_penalty = False
internal_control_established = True
internal_control_ok = True
capital_severe_penalty_condition = False
improvement_plan_approved = False